(set-logic QF_S)
(declare-fun var0 () String)
(declare-fun var1 () Int)
(declare-fun var2 () Bool)
(declare-fun var3 () String)
(declare-fun var4 () Int)
(declare-fun var5 () Bool)
(declare-fun var6 () String)
(declare-fun var7 () Int)
(declare-fun var8 () Bool)
(assert (<= (str.indexof var6 var3 var7) (str.len var0)))
(assert (str.in.re (str.at (str.substr var0 var4 var1) (str.len var6)) (re.* re.allchar)))
(assert (>= (str.len (str.substr var6 var4 var1)) (str.indexof (str.at var0 var4) (str.substr var6 var4 var1) (str.len "r,A#GPC.y/"))))
(assert (<= var7 var7))
(check-sat)